language Essence 1.3
$ generated by bacp-gen.pl with seed 342897262
$ edge probability 0.0595
$ course loads in range 2..8
letting n_courses be 158
letting n_periods be 29
letting load_per_period_lb be 6
letting load_per_period_ub be 49
letting courses_per_period_lb be 5
letting courses_per_period_ub be 10
letting course_load be function(
1 --> 6,
2 --> 6,
3 --> 8,
4 --> 7,
5 --> 4,
6 --> 3,
7 --> 7,
8 --> 3,
9 --> 5,
10 --> 5,
11 --> 3,
12 --> 3,
13 --> 4,
14 --> 8,
15 --> 7,
16 --> 4,
17 --> 4,
18 --> 6,
19 --> 4,
20 --> 4,
21 --> 6,
22 --> 5,
23 --> 6,
24 --> 8,
25 --> 5,
26 --> 4,
27 --> 4,
28 --> 8,
29 --> 4,
30 --> 8,
31 --> 2,
32 --> 6,
33 --> 7,
34 --> 4,
35 --> 2,
36 --> 7,
37 --> 7,
38 --> 4,
39 --> 6,
40 --> 6,
41 --> 3,
42 --> 5,
43 --> 8,
44 --> 2,
45 --> 2,
46 --> 7,
47 --> 6,
48 --> 3,
49 --> 7,
50 --> 4,
51 --> 7,
52 --> 6,
53 --> 2,
54 --> 5,
55 --> 2,
56 --> 8,
57 --> 4,
58 --> 5,
59 --> 2,
60 --> 2,
61 --> 5,
62 --> 2,
63 --> 4,
64 --> 5,
65 --> 7,
66 --> 3,
67 --> 8,
68 --> 5,
69 --> 2,
70 --> 3,
71 --> 8,
72 --> 2,
73 --> 4,
74 --> 3,
75 --> 6,
76 --> 3,
77 --> 6,
78 --> 2,
79 --> 4,
80 --> 4,
81 --> 8,
82 --> 2,
83 --> 5,
84 --> 5,
85 --> 5,
86 --> 8,
87 --> 4,
88 --> 5,
89 --> 5,
90 --> 3,
91 --> 3,
92 --> 2,
93 --> 6,
94 --> 7,
95 --> 5,
96 --> 8,
97 --> 5,
98 --> 7,
99 --> 6,
100 --> 7,
101 --> 6,
102 --> 5,
103 --> 6,
104 --> 4,
105 --> 4,
106 --> 3,
107 --> 6,
108 --> 4,
109 --> 7,
110 --> 5,
111 --> 4,
112 --> 6,
113 --> 5,
114 --> 4,
115 --> 8,
116 --> 7,
117 --> 3,
118 --> 8,
119 --> 2,
120 --> 6,
121 --> 5,
122 --> 7,
123 --> 5,
124 --> 8,
125 --> 2,
126 --> 5,
127 --> 7,
128 --> 4,
129 --> 4,
130 --> 6,
131 --> 7,
132 --> 7,
133 --> 7,
134 --> 3,
135 --> 8,
136 --> 6,
137 --> 3,
138 --> 3,
139 --> 3,
140 --> 4,
141 --> 4,
142 --> 4,
143 --> 5,
144 --> 6,
145 --> 8,
146 --> 7,
147 --> 2,
148 --> 4,
149 --> 7,
150 --> 5,
151 --> 7,
152 --> 5,
153 --> 2,
154 --> 3,
155 --> 6,
156 --> 8,
157 --> 2,
158 --> 5
)
letting prerequisite be relation (
(36,42),
(5,43),
(21,44),
(39,45),
(40,46),
(40,47),
(24,48),
(12,49),
(28,50),
(7,51),
(14,52),
(35,53),
(22,54),
(32,55),
(14,56),
(24,57),
(2,58),
(6,59),
(2,60),
(13,61),
(39,62),
(18,63),
(16,64),
(26,65),
(7,66),
(20,67),
(13,68),
(29,69),
(1,70),
(20,71),
(7,72),
(7,73),
(27,74),
(15,75),
(33,76),
(21,77),
(32,78),
(1,79),
(39,80),
(23,81),
(12,82),
(24,83),
(4,84),
(5,85),
(7,86),
(5,87),
(28,88),
(25,89),
(33,90),
(34,91),
(8,92),
(21,93),
(18,94),
(20,95),
(18,96),
(16,97),
(39,98),
(2,99),
(7,100),
(1,101),
(21,102),
(35,103),
(38,104),
(29,105),
(5,106),
(3,107),
(6,108),
(28,109),
(56,110),
(80,111),
(45,112),
(109,113),
(85,114),
(103,115),
(69,116),
(56,117),
(92,118),
(46,119),
(74,120),
(71,121),
(50,122),
(61,123),
(85,124),
(104,125),
(76,126),
(53,127),
(108,128),
(51,129),
(77,130),
(49,131),
(75,132),
(72,133),
(97,134),
(102,135),
(95,136),
(49,137),
(82,138),
(65,139),
(102,140),
(50,141),
(53,142),
(108,143),
(89,144),
(61,145),
(55,146),
(105,147),
(105,148),
(90,149),
(64,150),
(65,151),
(63,152),
(66,153),
(82,154),
(49,155),
(44,156),
(53,157),
(61,158),
(2,55),
(9,89),
(23,92),
(24,106),
(37,54),
(59,125),
(47,137),
(90,110),
(92,121),
(108,112),
(81,119),
(68,123),
(105,142),
(66,126),
(10,102),
(57,135),
(28,83),
(107,149),
(54,110),
(96,118),
(76,128),
(61,135),
(98,145),
(12,45),
(51,114),
(52,125),
(56,154),
(40,88),
(16,46),
(23,106),
(88,139),
(59,130),
(92,142),
(21,92),
(90,150),
(88,127),
(64,158),
(1,97),
(21,97),
(103,118),
(28,59),
(15,107),
(99,148),
(10,109),
(28,51),
(50,150),
(18,82),
(35,51),
(84,118),
(8,88),
(54,139),
(80,152),
(98,114),
(45,110),
(30,51),
(8,51),
(28,85),
(55,130),
(94,137),
(57,125),
(69,153),
(90,151),
(98,111),
(9,88),
(61,154),
(20,45),
(107,118),
(87,145),
(73,135),
(78,137),
(106,125),
(107,153),
(43,156),
(2,54),
(69,129),
(41,94),
(105,133),
(72,152),
(41,103),
(71,112),
(36,107),
(88,121),
(69,152),
(43,127),
(63,112),
(87,140),
(83,121),
(40,54),
(98,124),
(65,129),
(18,61),
(7,56),
(8,56),
(37,83),
(109,111),
(103,119),
(4,54),
(2,81),
(12,100),
(63,117),
(59,118),
(104,157),
(40,67),
(89,137),
(18,95),
(49,116),
(3,102),
(8,49),
(72,139),
(7,93),
(29,92),
(70,125),
(55,158),
(2,89),
(4,49),
(71,127),
(96,110),
(69,141),
(4,86),
(56,142),
(95,154),
(57,120),
(5,104),
(54,156),
(95,157),
(54,144),
(45,143),
(75,116),
(95,117),
(30,58),
(26,88),
(34,103),
(5,52),
(13,75),
(44,145),
(66,124),
(97,157),
(40,86),
(48,129),
(48,148),
(44,118),
(39,83),
(89,130),
(4,71),
(13,72),
(71,132),
(4,81),
(2,45),
(23,61),
(21,71),
(50,110),
(61,138),
(83,137),
(39,91),
(75,151),
(38,94),
(28,55),
(36,62),
(39,90),
(85,135),
(47,139),
(82,133),
(57,153),
(17,68),
(38,42),
(34,67),
(35,108),
(37,108),
(64,116),
(47,145),
(20,99),
(103,124),
(106,115),
(11,95),
(45,120),
(41,42),
(12,88),
(28,68),
(104,119),
(48,132),
(72,149),
(71,128),
(27,82),
(59,139),
(3,91),
(43,146),
(35,89),
(39,71),
(31,65),
(6,45),
(33,46),
(76,158),
(31,84),
(33,99),
(77,145),
(19,93),
(87,137),
(31,89),
(55,152),
(81,144),
(98,139),
(20,50),
(23,101),
(92,139),
(15,91),
(42,129),
(15,73),
(92,117),
(12,87),
(51,158),
(27,53),
(63,110),
(63,134),
(88,128),
(34,68),
(52,154),
(79,157),
(28,61),
(55,132),
(26,43),
(41,78),
(98,147),
(94,115),
(95,142),
(21,43),
(87,114),
(16,79),
(12,78),
(22,86),
(42,131),
(5,61),
(73,127),
(35,81),
(51,151),
(67,119),
(33,93),
(71,115),
(38,95),
(16,82),
(36,103),
(85,143),
(107,114),
(85,148),
(27,46),
(26,49),
(27,81),
(9,85)
)

